(set-info :source |printed by MathSAT|)
(declare-fun call__DRAGON_.g08 () Bool)
(declare-fun call__DRAGON_.ite35 () Int)
(declare-fun call__DRAGON_.mem_init () Int)
(declare-fun call__DRAGON_.ite3 () Int)
(declare-fun call__DRAGON_.shared_dirty () Int)
(declare-fun call__DRAGON_.ite45 () Int)
(declare-fun call__DRAGON_.ite41 () Int)
(declare-fun call__DRAGON_.ite37 () Int)
(declare-fun call__DRAGON_.ite42 () Int)
(declare-fun call__DRAGON_.ite30 () Int)
(declare-fun invalid () Int)
(declare-fun call__DRAGON_.flby4 () Int)
(declare-fun call__DRAGON_.ite27 () Int)
(declare-fun call__DRAGON_.ite12 () Int)
(declare-fun param_init_invalid () Int)
(declare-fun param_e07 () Bool)
(declare-fun call__DRAGON_.ite19 () Int)
(declare-fun call__DRAGON_.ite7 () Int)
(declare-fun call__DRAGON_.erreur () Bool)
(declare-fun call__DRAGON_.ite4 () Int)
(declare-fun call__DRAGON_.ite14 () Int)
(declare-fun call__DRAGON_.ite53 () Int)
(declare-fun call__DRAGON_.ite23 () Int)
(declare-fun call__DRAGON_.ite46 () Int)
(declare-fun param_e05 () Bool)
(declare-fun call__DRAGON_.ite57 () Int)
(declare-fun call__DRAGON_.ite56 () Int)
(declare-fun param_e03 () Bool)
(declare-fun call__DRAGON_.ite26 () Int)
(declare-fun call__DRAGON_.ite22 () Int)
(declare-fun call__DRAGON_.ite6 () Int)
(declare-fun call__DRAGON_.ite61 () Int)
(declare-fun dirty () Int)
(declare-fun param_e12 () Bool)
(declare-fun call__DRAGON_.g05 () Bool)
(declare-fun call__DRAGON_.ite44 () Int)
(declare-fun call__DRAGON_.g02 () Bool)
(declare-fun call__DRAGON_.ite36 () Int)
(declare-fun call__DRAGON_.ite38 () Int)
(declare-fun call_Sofar.Sofar () Bool)
(declare-fun call__DRAGON_.ite10 () Int)
(declare-fun call__DRAGON_.ite21 () Int)
(declare-fun call__DRAGON_.ite47 () Int)
(declare-fun call__DRAGON_.ite43 () Int)
(declare-fun param_e08 () Bool)
(declare-fun call__DRAGON_.ite24 () Int)
(declare-fun call__DRAGON_.ite15 () Int)
(declare-fun param_e02 () Bool)
(declare-fun erreur () Bool)
(declare-fun call__DRAGON_.ite18 () Int)
(declare-fun param_e04 () Bool)
(declare-fun call__DRAGON_.ite31 () Int)
(declare-fun call__DRAGON_.ite16 () Int)
(declare-fun call__DRAGON_.ite60 () Int)
(declare-fun call__DRAGON_.ite39 () Int)
(declare-fun param_e11 () Bool)
(declare-fun call__DRAGON_.ite2 () Int)
(declare-fun call__DRAGON_.ite9 () Int)
(declare-fun call__DRAGON_.ite8 () Int)
(declare-fun param_e10 () Bool)
(declare-fun call__DRAGON_.dirty () Int)
(declare-fun call__DRAGON_.ite52 () Int)
(declare-fun call__DRAGON_.g06 () Bool)
(declare-fun call_excludes12.excludes () Bool)
(declare-fun call__DRAGON_.ite40 () Int)
(declare-fun call__DRAGON_.ite20 () Int)
(declare-fun exclusive () Int)
(declare-fun shared () Int)
(declare-fun call__DRAGON_.ite25 () Int)
(declare-fun call__DRAGON_.ite48 () Int)
(declare-fun call__DRAGON_.ite58 () Int)
(declare-fun shared_dirty () Int)
(declare-fun param_e01 () Bool)
(declare-fun call__DRAGON_.ite50 () Int)
(declare-fun _OK_ () Bool)
(declare-fun call__DRAGON_.ite54 () Int)
(declare-fun call__DRAGON_.ite51 () Int)
(declare-fun call__DRAGON_.ite29 () Int)
(declare-fun call__DRAGON_.ite13 () Int)
(declare-fun call__DRAGON_.invalid () Int)
(declare-fun call__DRAGON_.ite17 () Int)
(declare-fun call__DRAGON_.flby2 () Int)
(declare-fun call__DRAGON_.g04 () Bool)
(declare-fun call__DRAGON_.flby5 () Int)
(declare-fun call__DRAGON_.ite11 () Int)
(declare-fun call__DRAGON_.shared () Int)
(declare-fun call__DRAGON_.flby3 () Int)
(declare-fun call__DRAGON_.exclusive () Int)
(declare-fun call__DRAGON_.ite33 () Int)
(declare-fun call__DRAGON_.ite5 () Int)
(declare-fun call__DRAGON_.ite () Bool)
(declare-fun call__DRAGON_.ite55 () Int)
(declare-fun param_e06 () Bool)
(declare-fun call__DRAGON_.ite34 () Int)
(declare-fun param_e09 () Bool)
(declare-fun call__DRAGON_.ite32 () Int)
(declare-fun call__DRAGON_.flby6 () Int)
(declare-fun call__DRAGON_.ite49 () Int)
(declare-fun call_Sofar.flby () Bool)
(declare-fun env () Bool)
(declare-fun call__DRAGON_.ite28 () Int)
(declare-fun call__DRAGON_.ite59 () Int)
(declare-fun call__DRAGON_.flby () Int)
(define-fun .def_1730 () Bool (= call_Sofar.flby call_Sofar.Sofar))
(define-fun .def_1539 () Bool (not param_e02))
(define-fun .def_1520 () Bool (not param_e01))
(define-fun .def_1628 () Bool (and .def_1520 .def_1539))
(define-fun .def_1579 () Bool (not param_e03))
(define-fun .def_1629 () Bool (and .def_1579 .def_1628))
(define-fun .def_1595 () Bool (not param_e04))
(define-fun .def_1630 () Bool (and .def_1595 .def_1629))
(define-fun .def_1384 () Bool (not param_e05))
(define-fun .def_1631 () Bool (and .def_1384 .def_1630))
(define-fun .def_1368 () Bool (not param_e06))
(define-fun .def_1632 () Bool (and .def_1368 .def_1631))
(define-fun .def_1404 () Bool (not param_e07))
(define-fun .def_1633 () Bool (and .def_1404 .def_1632))
(define-fun .def_1422 () Bool (not param_e08))
(define-fun .def_1634 () Bool (and .def_1422 .def_1633))
(define-fun .def_1264 () Bool (not param_e09))
(define-fun .def_1635 () Bool (and .def_1264 .def_1634))
(define-fun .def_1270 () Bool (not param_e10))
(define-fun .def_1636 () Bool (and .def_1270 .def_1635))
(define-fun .def_1277 () Bool (not param_e11))
(define-fun .def_1637 () Bool (and .def_1277 .def_1636))
(define-fun .def_1284 () Bool (not param_e12))
(define-fun .def_1715 () Bool (and .def_1284 .def_1637))
(define-fun .def_1704 () Bool (and param_e01 .def_1539))
(define-fun .def_1705 () Bool (and .def_1579 .def_1704))
(define-fun .def_1706 () Bool (and .def_1595 .def_1705))
(define-fun .def_1707 () Bool (and .def_1384 .def_1706))
(define-fun .def_1708 () Bool (and .def_1368 .def_1707))
(define-fun .def_1709 () Bool (and .def_1404 .def_1708))
(define-fun .def_1710 () Bool (and .def_1422 .def_1709))
(define-fun .def_1711 () Bool (and .def_1264 .def_1710))
(define-fun .def_1712 () Bool (and .def_1270 .def_1711))
(define-fun .def_1713 () Bool (and .def_1277 .def_1712))
(define-fun .def_1714 () Bool (and .def_1284 .def_1713))
(define-fun .def_1716 () Bool (or .def_1714 .def_1715))
(define-fun .def_1693 () Bool (and .def_1520 param_e02))
(define-fun .def_1694 () Bool (and .def_1579 .def_1693))
(define-fun .def_1695 () Bool (and .def_1595 .def_1694))
(define-fun .def_1696 () Bool (and .def_1384 .def_1695))
(define-fun .def_1697 () Bool (and .def_1368 .def_1696))
(define-fun .def_1698 () Bool (and .def_1404 .def_1697))
(define-fun .def_1699 () Bool (and .def_1422 .def_1698))
(define-fun .def_1700 () Bool (and .def_1264 .def_1699))
(define-fun .def_1701 () Bool (and .def_1270 .def_1700))
(define-fun .def_1702 () Bool (and .def_1277 .def_1701))
(define-fun .def_1703 () Bool (and .def_1284 .def_1702))
(define-fun .def_1717 () Bool (or .def_1703 .def_1716))
(define-fun .def_1683 () Bool (and param_e03 .def_1628))
(define-fun .def_1684 () Bool (and .def_1595 .def_1683))
(define-fun .def_1685 () Bool (and .def_1384 .def_1684))
(define-fun .def_1686 () Bool (and .def_1368 .def_1685))
(define-fun .def_1687 () Bool (and .def_1404 .def_1686))
(define-fun .def_1688 () Bool (and .def_1422 .def_1687))
(define-fun .def_1689 () Bool (and .def_1264 .def_1688))
(define-fun .def_1690 () Bool (and .def_1270 .def_1689))
(define-fun .def_1691 () Bool (and .def_1277 .def_1690))
(define-fun .def_1692 () Bool (and .def_1284 .def_1691))
(define-fun .def_1718 () Bool (or .def_1692 .def_1717))
(define-fun .def_1674 () Bool (and param_e04 .def_1629))
(define-fun .def_1675 () Bool (and .def_1384 .def_1674))
(define-fun .def_1676 () Bool (and .def_1368 .def_1675))
(define-fun .def_1677 () Bool (and .def_1404 .def_1676))
(define-fun .def_1678 () Bool (and .def_1422 .def_1677))
(define-fun .def_1679 () Bool (and .def_1264 .def_1678))
(define-fun .def_1680 () Bool (and .def_1270 .def_1679))
(define-fun .def_1681 () Bool (and .def_1277 .def_1680))
(define-fun .def_1682 () Bool (and .def_1284 .def_1681))
(define-fun .def_1719 () Bool (or .def_1682 .def_1718))
(define-fun .def_1666 () Bool (and param_e05 .def_1630))
(define-fun .def_1667 () Bool (and .def_1368 .def_1666))
(define-fun .def_1668 () Bool (and .def_1404 .def_1667))
(define-fun .def_1669 () Bool (and .def_1422 .def_1668))
(define-fun .def_1670 () Bool (and .def_1264 .def_1669))
(define-fun .def_1671 () Bool (and .def_1270 .def_1670))
(define-fun .def_1672 () Bool (and .def_1277 .def_1671))
(define-fun .def_1673 () Bool (and .def_1284 .def_1672))
(define-fun .def_1720 () Bool (or .def_1673 .def_1719))
(define-fun .def_1659 () Bool (and param_e06 .def_1631))
(define-fun .def_1660 () Bool (and .def_1404 .def_1659))
(define-fun .def_1661 () Bool (and .def_1422 .def_1660))
(define-fun .def_1662 () Bool (and .def_1264 .def_1661))
(define-fun .def_1663 () Bool (and .def_1270 .def_1662))
(define-fun .def_1664 () Bool (and .def_1277 .def_1663))
(define-fun .def_1665 () Bool (and .def_1284 .def_1664))
(define-fun .def_1721 () Bool (or .def_1665 .def_1720))
(define-fun .def_1653 () Bool (and param_e07 .def_1632))
(define-fun .def_1654 () Bool (and .def_1422 .def_1653))
(define-fun .def_1655 () Bool (and .def_1264 .def_1654))
(define-fun .def_1656 () Bool (and .def_1270 .def_1655))
(define-fun .def_1657 () Bool (and .def_1277 .def_1656))
(define-fun .def_1658 () Bool (and .def_1284 .def_1657))
(define-fun .def_1722 () Bool (or .def_1658 .def_1721))
(define-fun .def_1648 () Bool (and param_e08 .def_1633))
(define-fun .def_1649 () Bool (and .def_1264 .def_1648))
(define-fun .def_1650 () Bool (and .def_1270 .def_1649))
(define-fun .def_1651 () Bool (and .def_1277 .def_1650))
(define-fun .def_1652 () Bool (and .def_1284 .def_1651))
(define-fun .def_1723 () Bool (or .def_1652 .def_1722))
(define-fun .def_1644 () Bool (and param_e09 .def_1634))
(define-fun .def_1645 () Bool (and .def_1270 .def_1644))
(define-fun .def_1646 () Bool (and .def_1277 .def_1645))
(define-fun .def_1647 () Bool (and .def_1284 .def_1646))
(define-fun .def_1724 () Bool (or .def_1647 .def_1723))
(define-fun .def_1641 () Bool (and param_e10 .def_1635))
(define-fun .def_1642 () Bool (and .def_1277 .def_1641))
(define-fun .def_1643 () Bool (and .def_1284 .def_1642))
(define-fun .def_1725 () Bool (or .def_1643 .def_1724))
(define-fun .def_1639 () Bool (and param_e11 .def_1636))
(define-fun .def_1640 () Bool (and .def_1284 .def_1639))
(define-fun .def_1726 () Bool (or .def_1640 .def_1725))
(define-fun .def_1638 () Bool (and param_e12 .def_1637))
(define-fun .def_1727 () Bool (or .def_1638 .def_1726))
(define-fun .def_1728 () Bool (= call_excludes12.excludes .def_1727))
(define-fun .def_1626 () Bool (= call__DRAGON_.mem_init call__DRAGON_.flby))
(define-fun .def_1624 () Bool (= call__DRAGON_.erreur call__DRAGON_.ite))
(define-fun .def_1622 () Bool (= call__DRAGON_.flby6 call__DRAGON_.invalid))
(define-fun .def_1620 () Bool (= call__DRAGON_.flby5 call__DRAGON_.dirty))
(define-fun .def_1618 () Bool (= call__DRAGON_.flby4 call__DRAGON_.shared_dirty))
(define-fun .def_1616 () Bool (= call__DRAGON_.flby3 call__DRAGON_.shared))
(define-fun .def_1613 () Bool (= call__DRAGON_.flby2 call__DRAGON_.exclusive))
(define-fun .def_1608 () Bool (<= 2 call__DRAGON_.exclusive))
(define-fun .def_1610 () Bool (not .def_1608))
(define-fun .def_1611 () Bool (or call__DRAGON_.ite .def_1610))
(define-fun .def_1607 () Bool (not call__DRAGON_.ite))
(define-fun .def_1609 () Bool (or .def_1607 .def_1608))
(define-fun .def_1612 () Bool (and .def_1609 .def_1611))
(define-fun .def_1614 () Bool (and .def_1612 .def_1613))
(define-fun .def_1602 () Bool (= call__DRAGON_.ite42 call__DRAGON_.ite43))
(define-fun .def_1603 () Bool (or param_e04 .def_1602))
(define-fun .def_1599 () Bool (= call__DRAGON_.ite43 call__DRAGON_.ite34))
(define-fun .def_1600 () Bool (or .def_1595 .def_1599))
(define-fun .def_1594 () Bool (= call__DRAGON_.ite23 call__DRAGON_.ite30))
(define-fun .def_1596 () Bool (or .def_1594 .def_1595))
(define-fun .def_1591 () Bool (= call__DRAGON_.ite29 call__DRAGON_.ite30))
(define-fun .def_1593 () Bool (or .def_1591 param_e04))
(define-fun .def_1597 () Bool (and .def_1593 .def_1596))
(define-fun .def_1601 () Bool (and .def_1597 .def_1600))
(define-fun .def_1604 () Bool (and .def_1601 .def_1603))
(define-fun .def_1587 () Bool (= call__DRAGON_.ite44 call__DRAGON_.ite43))
(define-fun .def_1588 () Bool (or param_e03 .def_1587))
(define-fun .def_1583 () Bool (= call__DRAGON_.ite44 call__DRAGON_.ite33))
(define-fun .def_1584 () Bool (or .def_1579 .def_1583))
(define-fun .def_1578 () Bool (= call__DRAGON_.ite9 call__DRAGON_.ite4))
(define-fun .def_1580 () Bool (or .def_1578 .def_1579))
(define-fun .def_1574 () Bool (= call__DRAGON_.ite8 call__DRAGON_.ite9))
(define-fun .def_1576 () Bool (or .def_1574 param_e03))
(define-fun .def_1581 () Bool (and .def_1576 .def_1580))
(define-fun .def_1585 () Bool (and .def_1581 .def_1584))
(define-fun .def_1589 () Bool (and .def_1585 .def_1588))
(define-fun .def_1570 () Bool (= call__DRAGON_.ite31 call__DRAGON_.ite30))
(define-fun .def_1571 () Bool (or param_e02 .def_1570))
(define-fun .def_1566 () Bool (= call__DRAGON_.ite22 call__DRAGON_.ite31))
(define-fun .def_1567 () Bool (or .def_1539 .def_1566))
(define-fun .def_1561 () Bool (= call__DRAGON_.ite20 call__DRAGON_.ite21))
(define-fun .def_1562 () Bool (or param_e02 .def_1561))
(define-fun .def_1558 () Bool (= call__DRAGON_.ite12 call__DRAGON_.ite21))
(define-fun .def_1559 () Bool (or .def_1539 .def_1558))
(define-fun .def_1553 () Bool (= call__DRAGON_.ite10 call__DRAGON_.ite9))
(define-fun .def_1554 () Bool (or param_e02 .def_1553))
(define-fun .def_1549 () Bool (= call__DRAGON_.ite3 call__DRAGON_.ite10))
(define-fun .def_1550 () Bool (or .def_1539 .def_1549))
(define-fun .def_1546 () Bool (= call__DRAGON_.ite59 call__DRAGON_.ite60))
(define-fun .def_1547 () Bool (or param_e02 .def_1546))
(define-fun .def_1543 () Bool (= call__DRAGON_.ite60 call__DRAGON_.ite47))
(define-fun .def_1544 () Bool (or .def_1539 .def_1543))
(define-fun .def_1538 () Bool (= call__DRAGON_.ite32 call__DRAGON_.ite45))
(define-fun .def_1540 () Bool (or .def_1538 .def_1539))
(define-fun .def_1535 () Bool (= call__DRAGON_.ite45 call__DRAGON_.ite44))
(define-fun .def_1537 () Bool (or .def_1535 param_e02))
(define-fun .def_1541 () Bool (and .def_1537 .def_1540))
(define-fun .def_1545 () Bool (and .def_1541 .def_1544))
(define-fun .def_1548 () Bool (and .def_1545 .def_1547))
(define-fun .def_1551 () Bool (and .def_1548 .def_1550))
(define-fun .def_1555 () Bool (and .def_1551 .def_1554))
(define-fun .def_1560 () Bool (and .def_1555 .def_1559))
(define-fun .def_1563 () Bool (and .def_1560 .def_1562))
(define-fun .def_1568 () Bool (and .def_1563 .def_1567))
(define-fun .def_1572 () Bool (and .def_1568 .def_1571))
(define-fun .def_1529 () Bool (= call__DRAGON_.ite11 call__DRAGON_.ite10))
(define-fun .def_1530 () Bool (or param_e01 .def_1529))
(define-fun .def_1525 () Bool (= call__DRAGON_.ite2 call__DRAGON_.ite11))
(define-fun .def_1526 () Bool (or .def_1520 .def_1525))
(define-fun .def_1519 () Bool (= call__DRAGON_.ite61 call__DRAGON_.ite46))
(define-fun .def_1521 () Bool (or .def_1519 .def_1520))
(define-fun .def_1515 () Bool (= call__DRAGON_.ite61 call__DRAGON_.ite60))
(define-fun .def_1517 () Bool (or .def_1515 param_e01))
(define-fun .def_1522 () Bool (and .def_1517 .def_1521))
(define-fun .def_1527 () Bool (and .def_1522 .def_1526))
(define-fun .def_1531 () Bool (and .def_1527 .def_1530))
(define-fun .def_1509 () Bool (= call__DRAGON_.ite55 call__DRAGON_.ite52))
(define-fun .def_1510 () Bool (or .def_1277 .def_1509))
(define-fun .def_1506 () Bool (= call__DRAGON_.ite54 call__DRAGON_.ite55))
(define-fun .def_1507 () Bool (or param_e11 .def_1506))
(define-fun .def_1511 () Bool (and .def_1507 .def_1510))
(define-fun .def_1502 () Bool (= call__DRAGON_.ite56 call__DRAGON_.ite51))
(define-fun .def_1503 () Bool (or .def_1270 .def_1502))
(define-fun .def_1499 () Bool (= call__DRAGON_.ite56 call__DRAGON_.ite55))
(define-fun .def_1500 () Bool (or param_e10 .def_1499))
(define-fun .def_1504 () Bool (and .def_1500 .def_1503))
(define-fun .def_1496 () Bool (= env call_Sofar.Sofar))
(define-fun .def_1491 () Bool (= call__DRAGON_.ite57 call__DRAGON_.ite50))
(define-fun .def_1492 () Bool (or .def_1264 .def_1491))
(define-fun .def_1488 () Bool (= call__DRAGON_.ite57 call__DRAGON_.ite56))
(define-fun .def_1489 () Bool (or param_e09 .def_1488))
(define-fun .def_1493 () Bool (and .def_1489 .def_1492))
(define-fun .def_1485 () Bool (= erreur call__DRAGON_.erreur))
(define-fun .def_1481 () Bool (= invalid call__DRAGON_.invalid))
(define-fun .def_1477 () Bool (= dirty call__DRAGON_.dirty))
(define-fun .def_1474 () Bool (= shared_dirty call__DRAGON_.shared_dirty))
(define-fun .def_1470 () Bool (= shared call__DRAGON_.shared))
(define-fun .def_1467 () Bool (= exclusive call__DRAGON_.exclusive))
(define-fun .def_1459 () Bool (<= 1 shared))
(define-fun .def_1460 () Bool (not .def_1459))
(define-fun .def_1456 () Bool (<= 1 dirty))
(define-fun .def_1457 () Bool (not .def_1456))
(define-fun .def_1461 () Bool (or .def_1457 .def_1460))
(define-fun .def_1454 () Bool (not env))
(define-fun .def_1462 () Bool (or .def_1454 .def_1461))
(define-fun .def_1463 () Bool (= _OK_ .def_1462))
(define-fun .def_1448 () Bool (= call__DRAGON_.ite39 call__DRAGON_.ite40))
(define-fun .def_1449 () Bool (or param_e08 .def_1448))
(define-fun .def_1445 () Bool (= call__DRAGON_.ite37 call__DRAGON_.ite40))
(define-fun .def_1446 () Bool (or .def_1422 .def_1445))
(define-fun .def_1442 () Bool (= call__DRAGON_.ite27 call__DRAGON_.ite28))
(define-fun .def_1443 () Bool (or param_e08 .def_1442))
(define-fun .def_1439 () Bool (= call__DRAGON_.ite25 call__DRAGON_.ite28))
(define-fun .def_1440 () Bool (or .def_1422 .def_1439))
(define-fun .def_1436 () Bool (= call__DRAGON_.ite17 call__DRAGON_.ite18))
(define-fun .def_1437 () Bool (or param_e08 .def_1436))
(define-fun .def_1433 () Bool (= call__DRAGON_.ite18 call__DRAGON_.ite15))
(define-fun .def_1434 () Bool (or .def_1422 .def_1433))
(define-fun .def_1429 () Bool (= call__DRAGON_.ite7 call__DRAGON_.ite8))
(define-fun .def_1430 () Bool (or param_e08 .def_1429))
(define-fun .def_1426 () Bool (= call__DRAGON_.ite5 call__DRAGON_.ite8))
(define-fun .def_1427 () Bool (or .def_1422 .def_1426))
(define-fun .def_1421 () Bool (= call__DRAGON_.ite58 call__DRAGON_.ite49))
(define-fun .def_1423 () Bool (or .def_1421 .def_1422))
(define-fun .def_1417 () Bool (= call__DRAGON_.ite58 call__DRAGON_.ite57))
(define-fun .def_1419 () Bool (or .def_1417 param_e08))
(define-fun .def_1424 () Bool (and .def_1419 .def_1423))
(define-fun .def_1428 () Bool (and .def_1424 .def_1427))
(define-fun .def_1431 () Bool (and .def_1428 .def_1430))
(define-fun .def_1435 () Bool (and .def_1431 .def_1434))
(define-fun .def_1438 () Bool (and .def_1435 .def_1437))
(define-fun .def_1441 () Bool (and .def_1438 .def_1440))
(define-fun .def_1444 () Bool (and .def_1441 .def_1443))
(define-fun .def_1447 () Bool (and .def_1444 .def_1446))
(define-fun .def_1450 () Bool (and .def_1447 .def_1449))
(define-fun .def_1412 () Bool (= call__DRAGON_.ite41 call__DRAGON_.ite40))
(define-fun .def_1413 () Bool (or param_e07 .def_1412))
(define-fun .def_1408 () Bool (= call__DRAGON_.ite41 call__DRAGON_.ite36))
(define-fun .def_1409 () Bool (or .def_1404 .def_1408))
(define-fun .def_1403 () Bool (= call__DRAGON_.ite59 call__DRAGON_.ite48))
(define-fun .def_1405 () Bool (or .def_1403 .def_1404))
(define-fun .def_1399 () Bool (= call__DRAGON_.ite58 call__DRAGON_.ite59))
(define-fun .def_1401 () Bool (or .def_1399 param_e07))
(define-fun .def_1406 () Bool (and .def_1401 .def_1405))
(define-fun .def_1410 () Bool (and .def_1406 .def_1409))
(define-fun .def_1414 () Bool (and .def_1410 .def_1413))
(define-fun .def_1393 () Bool (= call__DRAGON_.ite42 call__DRAGON_.ite41))
(define-fun .def_1394 () Bool (or param_e05 .def_1393))
(define-fun .def_1389 () Bool (= call__DRAGON_.ite35 call__DRAGON_.ite42))
(define-fun .def_1390 () Bool (or .def_1384 .def_1389))
(define-fun .def_1383 () Bool (= call__DRAGON_.ite13 call__DRAGON_.ite20))
(define-fun .def_1385 () Bool (or .def_1383 .def_1384))
(define-fun .def_1380 () Bool (= call__DRAGON_.ite19 call__DRAGON_.ite20))
(define-fun .def_1382 () Bool (or .def_1380 param_e05))
(define-fun .def_1386 () Bool (and .def_1382 .def_1385))
(define-fun .def_1391 () Bool (and .def_1386 .def_1390))
(define-fun .def_1395 () Bool (and .def_1391 .def_1394))
(define-fun .def_1376 () Bool (= call__DRAGON_.ite29 call__DRAGON_.ite28))
(define-fun .def_1377 () Bool (or param_e06 .def_1376))
(define-fun .def_1372 () Bool (= call__DRAGON_.ite24 call__DRAGON_.ite29))
(define-fun .def_1373 () Bool (or .def_1368 .def_1372))
(define-fun .def_1367 () Bool (= call__DRAGON_.ite19 call__DRAGON_.ite14))
(define-fun .def_1369 () Bool (or .def_1367 .def_1368))
(define-fun .def_1363 () Bool (= call__DRAGON_.ite19 call__DRAGON_.ite18))
(define-fun .def_1365 () Bool (or .def_1363 param_e06))
(define-fun .def_1370 () Bool (and .def_1365 .def_1369))
(define-fun .def_1374 () Bool (and .def_1370 .def_1373))
(define-fun .def_1378 () Bool (and .def_1374 .def_1377))
(define-fun .def_1396 () Bool (and .def_1378 .def_1395))
(define-fun .def_1415 () Bool (and .def_1396 .def_1414))
(define-fun .def_1451 () Bool (and .def_1415 .def_1450))
(define-fun .def_1464 () Bool (and .def_1451 .def_1463))
(define-fun .def_1468 () Bool (and .def_1464 .def_1467))
(define-fun .def_1471 () Bool (and .def_1468 .def_1470))
(define-fun .def_1475 () Bool (and .def_1471 .def_1474))
(define-fun .def_1478 () Bool (and .def_1475 .def_1477))
(define-fun .def_1482 () Bool (and .def_1478 .def_1481))
(define-fun .def_1486 () Bool (and .def_1482 .def_1485))
(define-fun .def_1494 () Bool (and .def_1486 .def_1493))
(define-fun .def_1497 () Bool (and .def_1494 .def_1496))
(define-fun .def_1505 () Bool (and .def_1497 .def_1504))
(define-fun .def_1512 () Bool (and .def_1505 .def_1511))
(define-fun .def_1532 () Bool (and .def_1512 .def_1531))
(define-fun .def_1573 () Bool (and .def_1532 .def_1572))
(define-fun .def_1590 () Bool (and .def_1573 .def_1589))
(define-fun .def_1605 () Bool (and .def_1590 .def_1604))
(define-fun .def_1615 () Bool (and .def_1605 .def_1614))
(define-fun .def_1617 () Bool (and .def_1615 .def_1616))
(define-fun .def_1619 () Bool (and .def_1617 .def_1618))
(define-fun .def_1621 () Bool (and .def_1619 .def_1620))
(define-fun .def_1623 () Bool (and .def_1621 .def_1622))
(define-fun .def_1625 () Bool (and .def_1623 .def_1624))
(define-fun .def_1627 () Bool (and .def_1625 .def_1626))
(define-fun .def_1729 () Bool (and .def_1627 .def_1728))
(define-fun .def_1731 () Bool (and .def_1729 .def_1730))
(define-fun .def_1354 () Bool (<= param_init_invalid 0))
(define-fun .def_1355 () Bool (not .def_1354))
(define-fun .def_1357 () Bool (and .def_1355 call_excludes12.excludes))
(define-fun .def_1359 () Bool (= .def_1357 call_Sofar.flby))
(define-fun .def_1352 () Bool (= call__DRAGON_.flby4 0))
(define-fun .def_1349 () Bool (= call__DRAGON_.flby3 0))
(define-fun .def_1346 () Bool (= call__DRAGON_.flby2 0))
(define-fun .def_1343 () Bool (= param_init_invalid call__DRAGON_.flby))
(define-fun .def_1337 () Bool (= call__DRAGON_.ite37 0))
(define-fun .def_1330 () Bool (not call__DRAGON_.g08))
(define-fun .def_1338 () Bool (or .def_1330 .def_1337))
(define-fun .def_1333 () Bool (= call__DRAGON_.ite5 0))
(define-fun .def_1334 () Bool (or .def_1330 .def_1333))
(define-fun .def_1328 () Bool (= call__DRAGON_.ite25 1))
(define-fun .def_1331 () Bool (or .def_1328 .def_1330))
(define-fun .def_1335 () Bool (and .def_1331 .def_1334))
(define-fun .def_1339 () Bool (and .def_1335 .def_1338))
(define-fun .def_1324 () Bool (= call__DRAGON_.ite24 1))
(define-fun .def_1322 () Bool (not call__DRAGON_.g06))
(define-fun .def_1325 () Bool (or .def_1322 .def_1324))
(define-fun .def_1318 () Bool (= call__DRAGON_.ite13 0))
(define-fun .def_1316 () Bool (not call__DRAGON_.g05))
(define-fun .def_1319 () Bool (or .def_1316 .def_1318))
(define-fun .def_1312 () Bool (= call__DRAGON_.ite23 0))
(define-fun .def_1310 () Bool (not call__DRAGON_.g04))
(define-fun .def_1313 () Bool (or .def_1310 .def_1312))
(define-fun .def_1305 () Bool (= call__DRAGON_.ite3 0))
(define-fun .def_1302 () Bool (not call__DRAGON_.g02))
(define-fun .def_1306 () Bool (or .def_1302 .def_1305))
(define-fun .def_1300 () Bool (= call__DRAGON_.ite32 0))
(define-fun .def_1303 () Bool (or .def_1300 .def_1302))
(define-fun .def_1307 () Bool (and .def_1303 .def_1306))
(define-fun .def_1297 () Bool (= call__DRAGON_.flby6 call__DRAGON_.mem_init))
(define-fun .def_1293 () Bool (= call__DRAGON_.flby5 0))
(define-fun .def_1288 () Bool (= call__DRAGON_.ite53 call__DRAGON_.ite54))
(define-fun .def_1289 () Bool (or .def_1284 .def_1288))
(define-fun .def_1282 () Bool (= call__DRAGON_.ite6 call__DRAGON_.ite7))
(define-fun .def_1285 () Bool (or .def_1282 .def_1284))
(define-fun .def_1290 () Bool (and .def_1285 .def_1289))
(define-fun .def_1275 () Bool (= call__DRAGON_.ite26 call__DRAGON_.ite27))
(define-fun .def_1278 () Bool (or .def_1275 .def_1277))
(define-fun .def_1268 () Bool (= call__DRAGON_.ite16 call__DRAGON_.ite17))
(define-fun .def_1271 () Bool (or .def_1268 .def_1270))
(define-fun .def_1262 () Bool (= call__DRAGON_.ite38 call__DRAGON_.ite39))
(define-fun .def_1265 () Bool (or .def_1262 .def_1264))
(define-fun .def_1272 () Bool (and .def_1265 .def_1271))
(define-fun .def_1279 () Bool (and .def_1272 .def_1278))
(define-fun .def_1291 () Bool (and .def_1279 .def_1290))
(define-fun .def_1294 () Bool (and .def_1291 .def_1293))
(define-fun .def_1298 () Bool (and .def_1294 .def_1297))
(define-fun .def_1308 () Bool (and .def_1298 .def_1307))
(define-fun .def_1314 () Bool (and .def_1308 .def_1313))
(define-fun .def_1320 () Bool (and .def_1314 .def_1319))
(define-fun .def_1326 () Bool (and .def_1320 .def_1325))
(define-fun .def_1340 () Bool (and .def_1326 .def_1339))
(define-fun .def_1344 () Bool (and .def_1340 .def_1343))
(define-fun .def_1347 () Bool (and .def_1344 .def_1346))
(define-fun .def_1350 () Bool (and .def_1347 .def_1349))
(define-fun .def_1353 () Bool (and .def_1350 .def_1352))
(define-fun .def_1360 () Bool (and .def_1353 .def_1359))
(define-fun .def_1732 () Bool (and .def_1360 .def_1731))
(assert .def_1732)
